!Synthetic 2-port Touchstone sample dataset
! Created with skrf 2.0.1 (http://scikit-rf.org).
# GHz S RI R 50.0 
!freq ReS11 ImS11 ReS21 ImS21 ReS12 ImS12 ReS22 ImS22
1.0 0.1922640058687149 -0.1742480789116025 0.12671192992750963 -0.018169776768382707 0.12671192992750963 -0.018169776768382707 0.24172084751021305 -0.12727975449885504
1.04 0.14351316324028957 -0.1836589218209797 0.11852742782794404 -0.026080860306822735 0.11852742782794404 -0.026080860306822735 0.23180795674767882 -0.12619872409599658
1.08 0.1701059607731047 -0.19704819641204485 0.1279377017841455 -0.03758108640236433 0.1279377017841455 -0.03758108640236433 0.21948447837846435 -0.15156281310283368
1.12 0.15673679496635703 -0.2190774878843418 0.12787113136984538 -0.03837115389139876 0.12787113136984538 -0.03837115389139876 0.24020206447454434 -0.14163584127464507
1.16 0.15400664314175533 -0.20409078213369514 0.12649400939716504 -0.04290477057655935 0.12649400939716504 -0.04290477057655935 0.23899625437629873 -0.1602483591860788
1.2 0.15212029575345376 -0.23792626666643202 0.13313727678240236 -0.05277653531404051 0.13313727678240236 -0.05277653531404051 0.23294018688069085 -0.17543528059444535
1.24 0.1294400039199271 -0.22247314251135 0.12281399908121196 -0.05344984943593665 0.12281399908121196 -0.05344984943593665 0.2290502181156257 -0.1965943910876569
1.28 0.1423012319742936 -0.23773011185177312 0.13146860759598117 -0.0557787776221656 0.13146860759598117 -0.0557787776221656 0.23034819539947635 -0.19099967198050982
1.32 0.13056350520428597 -0.23483851538990635 0.12228609674600077 -0.05933782529353346 0.12228609674600077 -0.05933782529353346 0.2214461193501296 -0.19675729660620558
1.36 0.16665309245624432 -0.25521922444162787 0.12308673637535321 -0.060894595376341905 0.12308673637535321 -0.060894595376341905 0.22057043046886599 -0.23158841951695544
1.4 0.12949951429668852 -0.2711075540715657 0.12142532761688267 -0.07227201742524086 0.12142532761688267 -0.07227201742524086 0.2014055550201056 -0.21228913998197735
1.44 0.11714442741316611 -0.26751213578899397 0.12856089947049157 -0.07998147202644246 0.12856089947049157 -0.07998147202644246 0.22015937834845484 -0.21801137674673887
1.48 0.11089768973932942 -0.2847735384646258 0.12104184088355717 -0.08096232629444206 0.12104184088355717 -0.08096232629444206 0.20300100550888378 -0.24136855202709606
1.52 0.0996816522847866 -0.28890734856954453 0.12520682098757083 -0.09147501990288157 0.12520682098757083 -0.09147501990288157 0.2160196639635973 -0.2500671636328071
1.56 0.08807566107963327 -0.2944346016053252 0.11826004800976482 -0.09997393442609029 0.11826004800976482 -0.09997393442609029 0.1700026243791413 -0.24102774510174224
1.6 0.0866002917638723 -0.3037654087462863 0.1280607137333412 -0.09341745917462785 0.1280607137333412 -0.09341745917462785 0.191683020381182 -0.2629551250762306
1.64 0.08682838263712576 -0.3116676796440697 0.13048068821421283 -0.1064815422567035 0.13048068821421283 -0.1064815422567035 0.18820149921515988 -0.2942715119487697
1.68 0.0707477554712648 -0.3252390267006437 0.12078185353680691 -0.10942391933204627 0.12078185353680691 -0.10942391933204627 0.16826831526133698 -0.29537153028950414
1.72 0.07346406555561086 -0.32569804160800114 0.12599822915642414 -0.11223757036508275 0.12599822915642414 -0.11223757036508275 0.1690851765936258 -0.3065571555812352
1.76 0.052276410725277465 -0.35182151727270783 0.11849032525301689 -0.12647585661891939 0.11849032525301689 -0.12647585661891939 0.1644598224378967 -0.3161311813068463
1.8 0.044546549989280655 -0.33836427569356614 0.12421260446062028 -0.12316948471826408 0.12421260446062028 -0.12316948471826408 0.15472021769885708 -0.3477314514338968
1.84 0.0494409207339095 -0.3548280737994652 0.11131527680539734 -0.12953805147724431 0.11131527680539734 -0.12953805147724431 0.13507586525488743 -0.3257967218354166
1.88 0.02877029431180098 -0.3373875977562221 0.10018540739397905 -0.13766192740248828 0.10018540739397905 -0.13766192740248828 0.1301384587928354 -0.3488035089688153
1.92 0.007270647860248515 -0.3413025044693433 0.11248041685923467 -0.14053696589810852 0.11248041685923467 -0.14053696589810852 0.13239698245951295 -0.34964007562474725
1.96 -0.0008243239552392576 -0.37857529108050997 0.1011541941657878 -0.15157898757475968 0.1011541941657878 -0.15157898757475968 0.12519690404422976 -0.3612291602907816
2.0 -0.005220991997268653 -0.36231405422679996 0.0931337491244979 -0.16404652459291416 0.0931337491244979 -0.16404652459291416 0.10320490026483774 -0.35947842280955655
2.04 -0.003205131596414855 -0.36934352089490113 0.09132729810899264 -0.15958486454655496 0.09132729810899264 -0.15958486454655496 0.09235810930975132 -0.3791792810466825
2.08 -0.037468617579524424 -0.38246609481652116 0.08254208579145392 -0.16779205682695927 0.08254208579145392 -0.16779205682695927 0.08255450287313544 -0.39189739709690413
2.12 -0.04969737679184748 -0.3701882149727129 0.0856710361150478 -0.16386668851241198 0.0856710361150478 -0.16386668851241198 0.07948589621366452 -0.38601098522388577
2.16 -0.04998652119564338 -0.3831990251295886 0.07676140260164874 -0.17175645655624514 0.07676140260164874 -0.17175645655624514 0.04673633199023722 -0.3843289015144415
2.2 -0.08186532771047356 -0.3988924174734554 0.0849213452830161 -0.1804834612865136 0.0849213452830161 -0.1804834612865136 0.03177208423431184 -0.4082494172872731
2.24 -0.08913612991535222 -0.3860602980903292 0.0759828201572726 -0.18222762685165944 0.0759828201572726 -0.18222762685165944 0.0337222201681467 -0.39763724871001255
2.28 -0.09082202203820275 -0.38658246937942603 0.059298581795668756 -0.1801955007970897 0.059298581795668756 -0.1801955007970897 0.008473117428159725 -0.41459340745270196
2.32 -0.10746509168771765 -0.3852584697220905 0.05477796191050374 -0.18563577151211458 0.05477796191050374 -0.18563577151211458 0.00038330258736512645 -0.42799577104240843
2.36 -0.1261489915245393 -0.3993622009936483 0.05400223162580816 -0.19366142089303506 0.05400223162580816 -0.19366142089303506 -0.006495410341964134 -0.4124269578402274
2.4 -0.1343140651458917 -0.38111293705383015 0.04151687289164795 -0.19738268507289605 0.04151687289164795 -0.19738268507289605 -0.016459336251657793 -0.44041428390905735
2.44 -0.18338339764511125 -0.3796171289357366 0.04469579056971201 -0.20478132793218404 0.04469579056971201 -0.20478132793218404 -0.04622816783775943 -0.4261596062586894
2.48 -0.15909078712353508 -0.39760409480092196 0.038933674513237114 -0.20771233975756184 0.038933674513237114 -0.20771233975756184 -0.04199361599975683 -0.44486035909606214
2.52 -0.1931968977611712 -0.3913715918959929 0.029002395755806865 -0.20758853113316356 0.029002395755806865 -0.20758853113316356 -0.08251064565727909 -0.43844547729615413
2.56 -0.2146562926004613 -0.38367850609190246 0.02366542443076437 -0.21440232670789558 0.02366542443076437 -0.21440232670789558 -0.07432559162646565 -0.4578341689068332
2.6 -0.20962633792524213 -0.38607405665412314 0.02224659805921616 -0.21536670123330773 0.02224659805921616 -0.21536670123330773 -0.11078595389372724 -0.4558753363970622
2.64 -0.21983462613546415 -0.35995812444752073 0.020045639157971237 -0.22527543317328405 0.020045639157971237 -0.22527543317328405 -0.12318881591600556 -0.43830394178097265
2.68 -0.24574268177837463 -0.37172859792317897 0.01343884072648174 -0.23064463079988518 0.01343884072648174 -0.23064463079988518 -0.11962905352101762 -0.4479641353329916
2.72 -0.266496322141271 -0.3797661433654097 -0.0009979688720770017 -0.2331590202388699 -0.0009979688720770017 -0.2331590202388699 -0.145885303582591 -0.44977731874028
2.76 -0.26986690931049445 -0.37281736068973403 -0.004164689585239708 -0.2289666954988273 -0.004164689585239708 -0.2289666954988273 -0.1656836885401619 -0.45428661094260214
2.8 -0.2849861629771956 -0.3602124947877851 -0.019545334577439687 -0.22199821509639234 -0.019545334577439687 -0.22199821509639234 -0.1781949755939974 -0.444555509678591
2.84 -0.28464361539200045 -0.33080578540541683 -0.021328969319330128 -0.2243180988312878 -0.021328969319330128 -0.2243180988312878 -0.18520473106331364 -0.46151946054940834
2.88 -0.30535232053714606 -0.34909602598205164 -0.03583780097447872 -0.23654973671246388 -0.03583780097447872 -0.23654973671246388 -0.20656763800727027 -0.4566594061687888
2.92 -0.3248762999072895 -0.3390133195237715 -0.035147385692974244 -0.24039663369980588 -0.035147385692974244 -0.24039663369980588 -0.2225323868003245 -0.44433129747209194
2.96 -0.3295226758788834 -0.32754919676387967 -0.05283740495438385 -0.22941544566378033 -0.05283740495438385 -0.22941544566378033 -0.22791601359044092 -0.447763896690093
3.0 -0.35633046772486154 -0.3249224391389036 -0.05940417992999388 -0.23154393794149145 -0.05940417992999388 -0.23154393794149145 -0.2618408758843063 -0.44246447433010105
3.04 -0.3769573146424986 -0.29298029074397214 -0.0626256343007667 -0.24089047036328953 -0.0626256343007667 -0.24089047036328953 -0.2755712585970456 -0.431577315175969
3.08 -0.3750428911782782 -0.3118074252507577 -0.06786415221501021 -0.2286431334899902 -0.06786415221501021 -0.2286431334899902 -0.29218641225274383 -0.42700523161922954
3.12 -0.38798064192044834 -0.28920148555613046 -0.08595317756048836 -0.23264380182074715 -0.08595317756048836 -0.23264380182074715 -0.29129154702827403 -0.4219856817992549
3.16 -0.408589742843519 -0.28464419400041246 -0.08959444517049546 -0.22617536582017486 -0.08959444517049546 -0.22617536582017486 -0.30896686289895003 -0.39660138210891294
3.2 -0.42659353449610204 -0.26910417518248625 -0.09440767148245911 -0.23005062360022632 -0.09440767148245911 -0.23005062360022632 -0.321764687294684 -0.39600110776979325
3.24 -0.4284624314623638 -0.2756225713834815 -0.10212087276642057 -0.22596623333576243 -0.10212087276642057 -0.22596623333576243 -0.35055467860080963 -0.3860389524684734
3.28 -0.46732224501757785 -0.23419851418690343 -0.11564037168888039 -0.2271525978180029 -0.11564037168888039 -0.2271525978180029 -0.3671668820785814 -0.3902127878073635
3.32 -0.44672885855473915 -0.2406140900583389 -0.11912675904373773 -0.23154983015803063 -0.11912675904373773 -0.23154983015803063 -0.3722255861226715 -0.3859482933450925
3.36 -0.45955779698972055 -0.22608531496820633 -0.1290834764321823 -0.22565872666909836 -0.1290834764321823 -0.22565872666909836 -0.3995975717841884 -0.385792356205949
3.4 -0.49127358025662443 -0.22232817606085659 -0.12882228051985392 -0.22527455212887335 -0.12882228051985392 -0.22527455212887335 -0.4019656663390936 -0.3644757480362195
3.44 -0.4842352892707606 -0.2063656112002984 -0.14109570010796627 -0.21480608497909606 -0.14109570010796627 -0.21480608497909606 -0.4173402831347364 -0.3709927421741723
3.48 -0.5039826508297555 -0.17907178432556792 -0.1584706280008926 -0.22069756503308866 -0.1584706280008926 -0.22069756503308866 -0.44554282063320144 -0.3445171630467162
3.52 -0.49577066599426356 -0.16006749629995368 -0.17074563461533648 -0.2198272176084851 -0.17074563461533648 -0.2198272176084851 -0.45300744352615696 -0.3190028500379481
3.56 -0.5321742438730137 -0.14720958072300772 -0.1670304270727598 -0.2048742460819564 -0.1670304270727598 -0.2048742460819564 -0.46659756122063056 -0.2978267490929296
3.6 -0.5289365160512148 -0.12707286158807626 -0.16930227787403915 -0.19837145291949898 -0.16930227787403915 -0.19837145291949898 -0.4608896259281967 -0.29122771799821134
3.64 -0.520105709050716 -0.1160693393007461 -0.1819043971564742 -0.19238718180068065 -0.1819043971564742 -0.19238718180068065 -0.4647264381809031 -0.2958012390481495
3.68 -0.5224808584709177 -0.10663382695064944 -0.18578744728287278 -0.1893600107776516 -0.18578744728287278 -0.1893600107776516 -0.503525061042641 -0.2680361640616833
3.72 -0.5618850827860652 -0.08193214249530423 -0.19989698440655496 -0.19727489036716536 -0.19989698440655496 -0.19727489036716536 -0.5138221757645643 -0.26612387031260665
3.76 -0.5509467051439979 -0.06743807802489876 -0.21140725194273569 -0.18783582494929593 -0.21140725194273569 -0.18783582494929593 -0.5477087470077554 -0.23478335497587777
3.8 -0.5477338006510963 -0.057178113257297304 -0.20778412093380563 -0.18142100487743704 -0.20778412093380563 -0.18142100487743704 -0.5331785768238188 -0.2284378530734303
3.84 -0.5615265966237281 -0.0314559526490137 -0.21778465827227622 -0.17283817810887725 -0.21778465827227622 -0.17283817810887725 -0.5452148129070157 -0.20260403273292937
3.88 -0.5433085873070269 -0.008175310036504891 -0.22141374860269694 -0.17726747091706302 -0.22141374860269694 -0.17726747091706302 -0.5651526088562695 -0.1688908937977364
3.92 -0.5742564096326164 -0.0007993155395811702 -0.23808124574626957 -0.16004721184889337 -0.23808124574626957 -0.16004721184889337 -0.5552574401724745 -0.1684228059210276
3.96 -0.5612661831699685 0.011356590021293474 -0.2363836063857753 -0.15185783435080424 -0.2363836063857753 -0.15185783435080424 -0.5868510258158219 -0.13696943491128205
4.0 -0.577091892739367 0.040318857958397826 -0.24630211396452426 -0.15098820128169937 -0.24630211396452426 -0.15098820128169937 -0.5807953837664089 -0.14080728296190945
4.04 -0.5536654757109715 0.07047403523488743 -0.2447791058265429 -0.13839399570193586 -0.2447791058265429 -0.13839399570193586 -0.5840683254312866 -0.12783359409379455
4.08 -0.5683729900262553 0.06779035236434515 -0.2570964420595773 -0.12554360732537362 -0.2570964420595773 -0.12554360732537362 -0.6040981008195773 -0.09284687989248784
4.12 -0.5716188709996084 0.08746785506435831 -0.2623441651441994 -0.12356539926365795 -0.2623441651441994 -0.12356539926365795 -0.5885186962416923 -0.07030727213812764
4.16 -0.5841222852741023 0.10555921016771821 -0.2670733544331884 -0.11059361883241141 -0.2670733544331884 -0.11059361883241141 -0.5913220722049572 -0.07421461676645508
4.2 -0.5484673761508366 0.13769403128750404 -0.26237770831357954 -0.10269006481441915 -0.26237770831357954 -0.10269006481441915 -0.6198350589719414 -0.048786462453302544
4.24 -0.5554023984887123 0.1256119759842574 -0.2728085732174703 -0.09740135965336637 -0.2728085732174703 -0.09740135965336637 -0.6234331969354919 -0.04458961601651392
4.28 -0.552337987456856 0.16611280713700566 -0.28070612137606465 -0.08904986809416218 -0.28070612137606465 -0.08904986809416218 -0.6059974657252987 -0.012768626635807166
4.32 -0.5447379828685698 0.19276847878577852 -0.28566104064354914 -0.08417669698867673 -0.28566104064354914 -0.08417669698867673 -0.6142633501919138 0.017729445425947003
4.36 -0.5481695799421441 0.19099537971366057 -0.28909210177090666 -0.06730940567921785 -0.28909210177090666 -0.06730940567921785 -0.6272768978165385 0.02770473964688685
4.4 -0.5529047096516423 0.23216509653993173 -0.2795563092902712 -0.06692819700245445 -0.2795563092902712 -0.06692819700245445 -0.6185802203476365 0.04267671262826708
4.44 -0.548675181080484 0.24060823886924643 -0.2986096431670229 -0.05899142486863489 -0.2986096431670229 -0.05899142486863489 -0.6164245954591702 0.054144105467161016
4.48 -0.5421515094522181 0.24754949268613333 -0.2961166185733839 -0.04279373312972799 -0.2961166185733839 -0.04279373312972799 -0.6157548412022689 0.09176308671004137
4.52 -0.5132491311789042 0.2726422395468688 -0.2906621535993838 -0.04067465229586413 -0.2906621535993838 -0.04067465229586413 -0.6042766761174015 0.11590546082761874
4.56 -0.533686293422578 0.27256491639454455 -0.2895992122992626 -0.025550070148051225 -0.2895992122992626 -0.025550070148051225 -0.6061887079902634 0.1336989886375634
4.6 -0.5165210382015121 0.2992832232448231 -0.29752270301572087 -0.012959572434758064 -0.29752270301572087 -0.012959572434758064 -0.5890685216614494 0.15001439951338008
4.64 -0.504598090080495 0.3399296947221826 -0.29378977025305253 -0.008351039056305165 -0.29378977025305253 -0.008351039056305165 -0.5890080858346702 0.15434014568087684
4.68 -0.48933366569667075 0.3291099892282074 -0.2944992279394233 0.0013056874980600156 -0.2944992279394233 0.0013056874980600156 -0.5912156611260414 0.20417981291072165
4.72 -0.4754001390742466 0.3725203550774924 -0.29358844935142864 0.014928921206664454 -0.29358844935142864 0.014928921206664454 -0.5817439968271501 0.20530791496288045
4.76 -0.48261284735634535 0.36889897012150713 -0.29815032684772985 0.023675394908058582 -0.29815032684772985 0.023675394908058582 -0.5730635647414275 0.22353699375519628
4.8 -0.47580088027688494 0.39488985433844076 -0.28961103572351293 0.021771939257358867 -0.28961103572351293 0.021771939257358867 -0.5723096567776557 0.2511958789237168
4.84 -0.4463519571505856 0.4001751794710712 -0.2959493712434309 0.0324677048228294 -0.2959493712434309 0.0324677048228294 -0.5839854864184154 0.24085657620202994
4.88 -0.42142687181638827 0.3916564669091656 -0.28807466614854643 0.055194206436362185 -0.28807466614854643 0.055194206436362185 -0.5547943214750258 0.28017667794445733
4.92 -0.41271650600287296 0.42220251444756635 -0.2996585107219535 0.059955641887764886 -0.2996585107219535 0.059955641887764886 -0.5536415880567092 0.29746926815007096
4.96 -0.4043520534513441 0.4431943660861879 -0.28751632454981124 0.05700177215939012 -0.28751632454981124 0.05700177215939012 -0.5284839628034402 0.32023238410544697
5.0 -0.3954335369794787 0.44265977223542236 -0.29621950724491214 0.06999276343213418 -0.29621950724491214 0.06999276343213418 -0.5333989079224906 0.3472875027061124
5.04 -0.3746626478522189 0.4530929096954719 -0.29480408187676854 0.08609963833666844 -0.29480408187676854 0.08609963833666844 -0.5181203392053546 0.35546307028313723
5.08 -0.3650058726594159 0.48220092405524756 -0.28184892461498884 0.09021002944245554 -0.28184892461498884 0.09021002944245554 -0.5085622659960155 0.3489629756989899
5.12 -0.33910670307698315 0.48368609892289405 -0.2852134947092833 0.10648434751802717 -0.2852134947092833 0.10648434751802717 -0.4830265529913706 0.38007668015577706
5.16 -0.33975607634492394 0.4846772741174627 -0.2752888996564631 0.11345068627878256 -0.2752888996564631 0.11345068627878256 -0.48564825906567094 0.4014054334673666
5.2 -0.3149225909761012 0.5062453376409709 -0.2791004850839853 0.12433462884181154 -0.2791004850839853 0.12433462884181154 -0.47742571010342205 0.4165065594343596
5.24 -0.3018062078431439 0.5333146119312979 -0.2617742451625819 0.12479577811257993 -0.2617742451625819 0.12479577811257993 -0.4588190565704554 0.41785265541951944
5.28 -0.2796666582259206 0.5318505662685031 -0.26574733706092113 0.1424806870323929 -0.26574733706092113 0.1424806870323929 -0.45347144026209785 0.4297605638351621
5.32 -0.26711482189161045 0.5579902924303407 -0.2674521232860837 0.15795252481841449 -0.2674521232860837 0.15795252481841449 -0.4346503559156845 0.46783631564821354
5.36 -0.2277768154515829 0.5758099466868286 -0.25696520317498284 0.15305575011634462 -0.25696520317498284 0.15305575011634462 -0.4234797136822338 0.4819330623617162
5.4 -0.22160717568748475 0.5720142930636775 -0.24952050044917093 0.1725963182608906 -0.24952050044917093 0.1725963182608906 -0.4075186212077221 0.49442703986266245
5.44 -0.20411786588625225 0.5700670442052671 -0.25378772335835315 0.17999916113102143 -0.25378772335835315 0.17999916113102143 -0.37715393140547054 0.4930744642327966
5.48 -0.2210349222978061 0.5758445611454128 -0.2430539916274441 0.18730216964897936 -0.2430539916274441 0.18730216964897936 -0.38550320786286996 0.5426785238704416
5.52 -0.1847159753378354 0.59345800324621 -0.2305255916930764 0.19243915759127772 -0.2305255916930764 0.19243915759127772 -0.3647154178361541 0.5087981194385257
5.56 -0.16740667138958082 0.6046904581656058 -0.23070262710166106 0.1950618524368985 -0.23070262710166106 0.1950618524368985 -0.3491728590803455 0.5447535773156822
5.6 -0.13565073150840476 0.5983764980999969 -0.22836617073397764 0.20375054544550816 -0.22836617073397764 0.20375054544550816 -0.32113028866729176 0.5774203540133056
5.64 -0.14339657993382296 0.5992558783609847 -0.22343045474057635 0.21823983896800558 -0.22343045474057635 0.21823983896800558 -0.319290647879696 0.560734794160646
5.68 -0.08870863107504737 0.586474425245329 -0.2091025396889198 0.22460226035086475 -0.2091025396889198 0.22460226035086475 -0.2934303035973484 0.5685983864458264
5.72 -0.06998546854170767 0.5906951445012834 -0.21040250042334457 0.23025784311967487 -0.21040250042334457 0.23025784311967487 -0.2657884914751601 0.5572627450385262
5.76 -0.07426201771110472 0.5798188914343205 -0.20856728133241573 0.2327718587109929 -0.20856728133241573 0.2327718587109929 -0.23901869395826886 0.584833256820844
5.8 -0.051958755434858124 0.5783183232067896 -0.18723788966012356 0.23595941234524448 -0.18723788966012356 0.23595941234524448 -0.22439796472030527 0.5603637743662988
5.84 -0.03140001649016868 0.5658388022367399 -0.17999574397008095 0.23259945489916134 -0.17999574397008095 0.23259945489916134 -0.208790758360672 0.5779324336343549
5.88 -0.004398584915924692 0.560203710441808 -0.15674578006471657 0.23203828520112066 -0.15674578006471657 0.23203828520112066 -0.19264583788912448 0.5788921565938615
5.92 0.01993839302310853 0.5680556630415811 -0.1558502558744298 0.24240798042797762 -0.1558502558744298 0.24240798042797762 -0.15929300479609454 0.5691199386616015
5.96 0.052178894315978094 0.5583677766812315 -0.15269208135804654 0.24716488321926666 -0.15269208135804654 0.24716488321926666 -0.13057988068967916 0.5903342840523246
6.0 0.04769798876614799 0.555926882174348 -0.14486616685533493 0.24826457485791376 -0.14486616685533493 0.24826457485791376 -0.12246619493353116 0.568729639945009
6.04 0.07510072852568725 0.5677277408703132 -0.12785517859997003 0.24322711762428614 -0.12785517859997003 0.24322711762428614 -0.1045824989045509 0.5769400149452507
6.08 0.08648939804735913 0.5548482122095926 -0.1257889445750074 0.2509807956279569 -0.1257889445750074 0.2509807956279569 -0.08286802824907859 0.5837523352122278
6.12 0.11977459474561816 0.5793507757933859 -0.11579658795825945 0.24866585277681777 -0.11579658795825945 0.24866585277681777 -0.07766388275159881 0.5795123344097682
6.16 0.12654237547833191 0.5531556137129958 -0.10455178683752109 0.2589392682720885 -0.10455178683752109 0.2589392682720885 -0.05239445500725788 0.5872265616782696
6.2 0.14943278578445623 0.5306458328041329 -0.09483150328426886 0.25479295402140156 -0.09483150328426886 0.25479295402140156 -0.03313296887437342 0.5900084543137883
6.24 0.14125468839198485 0.5372605554178266 -0.08594287753627584 0.2607103840228277 -0.08594287753627584 0.2607103840228277 -0.008840156700813374 0.5753612681007948
6.28 0.166028484932044 0.5249850382699252 -0.07700219664024563 0.26432490667727565 -0.07700219664024563 0.26432490667727565 0.006358119052686222 0.5697351600980186
6.32 0.17534647110352203 0.505948256123535 -0.062218618857760546 0.2642302909371522 -0.062218618857760546 0.2642302909371522 0.01276813351254792 0.5661611778801777
6.36 0.21366032520553396 0.5146894377917228 -0.051391208290227586 0.2708858534416431 -0.051391208290227586 0.2708858534416431 0.05419461934785862 0.5631987818254881
6.4 0.21988772072411508 0.4862586335305079 -0.059367914462562274 0.2586865207190643 -0.059367914462562274 0.2586865207190643 0.07760734853926474 0.569831181315221
6.44 0.22451561225645356 0.4532869779014842 -0.029465986297883842 0.2531346049203138 -0.029465986297883842 0.2531346049203138 0.07549802161033238 0.5538097404852561
6.48 0.23683584213313263 0.48120188950154696 -0.033014330002638814 0.26829534900648844 -0.033014330002638814 0.26829534900648844 0.0992467742847913 0.5536995720020786
6.52 0.25952187210448097 0.45603248180327105 -0.018819740390774824 0.2697799990999234 -0.018819740390774824 0.2697799990999234 0.11471669060199079 0.5417526708904866
6.56 0.2604807839856989 0.4655850611345054 -0.020203354264952806 0.2688132224391241 -0.020203354264952806 0.2688132224391241 0.13631433357509742 0.5266816904640063
6.6 0.27050184576786857 0.4323463112481718 -0.006440501136277671 0.2616513074079931 -0.006440501136277671 0.2616513074079931 0.1297069016013925 0.5356653797702319
6.64 0.2964107287620656 0.4147700176636143 0.0013370344868080188 0.2611955601891689 0.0013370344868080188 0.2611955601891689 0.1762657361199963 0.5080087213753864
6.68 0.3274857079569206 0.4294547675264907 0.009036344948557082 0.25708765089308616 0.009036344948557082 0.25708765089308616 0.17066234469578676 0.5092913788094036
6.72 0.31110465000701326 0.39027208868006996 0.02080870001557209 0.24768399282409184 0.02080870001557209 0.24768399282409184 0.2027441572197698 0.5144401623347751
6.76 0.3181643092764687 0.38981285235690116 0.027640500963191695 0.24870595092410008 0.027640500963191695 0.24870595092410008 0.20520796191855034 0.4785012566365982
6.8 0.32160511106958733 0.3887478145264014 0.027233111518874396 0.25117216636328704 0.027233111518874396 0.25117216636328704 0.21432698167938147 0.4782869788341139
6.84 0.3289895226482988 0.36161200030410773 0.03928793755506956 0.24266401865417245 0.03928793755506956 0.24266401865417245 0.2301459376765099 0.4519645509124712
6.88 0.3560353321191968 0.34564774862116016 0.050963988670582994 0.2516906476257038 0.050963988670582994 0.2516906476257038 0.25334258588409214 0.4512820027738076
6.92 0.3671571503478961 0.33325981872416893 0.058015364388162696 0.2308022913439494 0.058015364388162696 0.2308022913439494 0.24803791443883605 0.4296080841385774
6.96 0.36601823820693713 0.3262288960524582 0.05996871777516616 0.23245154326618434 0.05996871777516616 0.23245154326618434 0.2646862559291363 0.42875444569445587
7.0 0.37594052429627633 0.2952191632979464 0.0671136249112871 0.23605661280791773 0.0671136249112871 0.23605661280791773 0.27484040546448607 0.41446645762713125
7.04 0.37987140227898547 0.2947140662090814 0.0744087230430256 0.22313121696026428 0.0744087230430256 0.22313121696026428 0.27317915145727495 0.40833598673021165
7.08 0.3856048847637017 0.27959540400935684 0.07610257767747335 0.21596173886800665 0.07610257767747335 0.21596173886800665 0.31344818654167006 0.40973891892285685
7.12 0.37387202071038506 0.28229039032856584 0.08141093352650042 0.21008307489908934 0.08141093352650042 0.21008307489908934 0.31577478013786364 0.3833434469461147
7.16 0.3888785275245319 0.24068304240461122 0.10169124976265458 0.20831197963481407 0.10169124976265458 0.20831197963481407 0.31874032536124425 0.3734764602601457
7.2 0.39831415758841043 0.21995594115435066 0.09763125395654221 0.2143865583306358 0.09763125395654221 0.2143865583306358 0.338978446866928 0.35255766285110457
7.24 0.39252469787941197 0.22151215081350245 0.1056070177004055 0.20360434366202534 0.1056070177004055 0.20360434366202534 0.3255829251019485 0.3366037011413409
7.28 0.39817124459292424 0.19525366206787745 0.10666942316144516 0.19871023734631107 0.10666942316144516 0.19871023734631107 0.34163264261409354 0.3165330490820836
7.32 0.39675153048122713 0.18722866186261017 0.12192833068019665 0.18795542568239773 0.12192833068019665 0.18795542568239773 0.3662541959696162 0.2925531869847328
7.36 0.403049790732721 0.17084078125662422 0.12898238872192383 0.18906478592720552 0.12898238872192383 0.18906478592720552 0.3648426927500633 0.29682693085548767
7.4 0.4158004735376878 0.16646415791464642 0.12364629817774556 0.17954783136170996 0.12364629817774556 0.17954783136170996 0.3382510551502809 0.297925936307658
7.44 0.4035395221035179 0.1335866256148286 0.1315855872833327 0.16846883573208338 0.1315855872833327 0.16846883573208338 0.33205987329147696 0.2718313346653326
7.48 0.4058634349353841 0.12473787938705867 0.12924679334505954 0.1647747462291725 0.12924679334505954 0.1647747462291725 0.3592953677393441 0.24712609294422788
7.52 0.41480745369113964 0.08579680877184379 0.14559404989249355 0.1619244079136292 0.14559404989249355 0.1619244079136292 0.38400359436015097 0.2543456975358254
7.56 0.4118686580107857 0.08824568537410281 0.14488327517884364 0.16056566464542807 0.14488327517884364 0.16056566464542807 0.37181035425609243 0.21892265527315619
7.6 0.420618295864575 0.0985300876174052 0.13927723523569624 0.14815734186894322 0.13927723523569624 0.14815734186894322 0.3769351702557636 0.20249249580926834
7.64 0.38051397031929285 0.06258114465550509 0.1526764698843531 0.14463193625359233 0.1526764698843531 0.14463193625359233 0.38721388448790384 0.18204336008461958
7.68 0.40726080154579775 0.04883846971377846 0.15093515968192728 0.14587236820938826 0.15093515968192728 0.14587236820938826 0.3737464075926356 0.17011874381355474
7.72 0.3906776605342055 0.030375862685577147 0.1536396928752885 0.1253924601350843 0.1536396928752885 0.1253924601350843 0.3856520072428813 0.16294567652034797
7.76 0.39320532722820845 0.03531597811858944 0.15553512914478598 0.11677505876641175 0.15553512914478598 0.11677505876641175 0.39183624027716013 0.1711916263007882
7.8 0.39615841760410336 0.01853677121936533 0.1523226449361822 0.12147870725804343 0.1523226449361822 0.12147870725804343 0.3884551694547992 0.1350741560266564
7.84 0.39411729073573826 -0.007581332028350687 0.15463870951256453 0.1123393493182785 0.15463870951256453 0.1123393493182785 0.38710332229945305 0.11291728930855546
7.88 0.38877881644237067 -0.001202607867758155 0.16185235643857956 0.10325457451501392 0.16185235643857956 0.10325457451501392 0.37598333459304406 0.10345578706589288
7.92 0.3746506719235924 -0.01712242448362308 0.15965207186569516 0.09868569927135022 0.15965207186569516 0.09868569927135022 0.3855204437844769 0.09375808695441781
7.96 0.383541393679235 -0.02369932501219884 0.15607319069703007 0.08936963177951224 0.15607319069703007 0.08936963177951224 0.3740023104032839 0.06556259660177588
8.0 0.3586085201224655 -0.04882919474844358 0.17164516656727283 0.08729074520237434 0.17164516656727283 0.08729074520237434 0.38877041593082745 0.07087318501243915
8.04 0.3536880410078082 -0.035857267673910634 0.16087691585098396 0.07677619043943906 0.16087691585098396 0.07677619043943906 0.39842011747496137 0.06378964006065647
8.08 0.35643509678899227 -0.05960039130554684 0.1593321823965004 0.07625922321293897 0.1593321823965004 0.07625922321293897 0.3618894292094206 0.04743148250227371
8.12 0.33597394919789414 -0.07495986759175195 0.15861781942378705 0.06027929573500783 0.15861781942378705 0.06027929573500783 0.3436994554753729 0.037949690727020674
8.16 0.35586359206084306 -0.08869374426481248 0.16531362427899993 0.05599888895821601 0.16531362427899993 0.05599888895821601 0.3569488372998002 0.007057900682726097
8.2 0.33695274726091823 -0.0952838516010131 0.1662763975126514 0.05469890300623599 0.1662763975126514 0.05469890300623599 0.3603497021618717 -0.008716991455046674
8.24 0.3407804918487966 -0.09318769330405095 0.16196163167599423 0.04589530946709282 0.16196163167599423 0.04589530946709282 0.3620966734693277 0.009756460584328042
8.28 0.31079945602688225 -0.1130101676439873 0.16420460078861415 0.04595011669169055 0.16420460078861415 0.04595011669169055 0.35705287038371697 -0.0031971457779032125
8.32 0.29907026815604154 -0.10768466798918894 0.15129232354603397 0.03659589930189022 0.15129232354603397 0.03659589930189022 0.33276122201884023 -0.04024730667472881
8.36 0.2962212363002053 -0.12040239878332784 0.15566746502518342 0.028543646769381734 0.15566746502518342 0.028543646769381734 0.3266947112869735 -0.03313902514366463
8.4 0.2933784376056787 -0.12008229014101147 0.15372783627990896 0.026872276930125883 0.15372783627990896 0.026872276930125883 0.3410325347895312 -0.04495154591067739
8.44 0.27149102032996586 -0.13233772482171002 0.1544832517190703 0.017877722205327334 0.1544832517190703 0.017877722205327334 0.3108922016692458 -0.049400451358199864
8.48 0.272363882582499 -0.14763236574821545 0.15510756607676354 0.007554587505872906 0.15510756607676354 0.007554587505872906 0.32591709226023163 -0.06203802503217226
8.52 0.2594873726068183 -0.17221329927238477 0.14051319697050454 0.004623745986937816 0.14051319697050454 0.004623745986937816 0.30570485397147257 -0.0780463048420677
8.56 0.26680557388597487 -0.15584466570681416 0.1642322159034089 0.0013986960342130556 0.1642322159034089 0.0013986960342130556 0.30837509727849227 -0.07959534471138224
8.6 0.2349374134608332 -0.1562452153715675 0.14201165672800023 -0.0016953813318667716 0.14201165672800023 -0.0016953813318667716 0.30030650123545044 -0.08811834300556663
8.64 0.24288130628780172 -0.16741011881273213 0.1456783739447758 -0.003459422364681654 0.1456783739447758 -0.003459422364681654 0.29335965969845895 -0.09793094897199098
8.68 0.21679281193552005 -0.16797829965608016 0.14556852896504582 -0.0038425297060168447 0.14556852896504582 -0.0038425297060168447 0.28597808893280485 -0.12333748668006472
8.72 0.20440992952649573 -0.18236664366014543 0.14303832947199815 -0.00993256349388177 0.14303832947199815 -0.00993256349388177 0.25991078156941955 -0.14174531852914649
8.76 0.19768734662182275 -0.18517170468262922 0.13722176400679184 -0.007924539259598237 0.13722176400679184 -0.007924539259598237 0.2646785525421206 -0.12628598719400616
8.8 0.1836675669887703 -0.19412101713276503 0.11859393337895066 -0.014424706138545986 0.11859393337895066 -0.014424706138545986 0.25362698267785344 -0.14093356195102177
8.84 0.1878323650827654 -0.17402769760183573 0.12473798721021362 -0.0255527183902758 0.12473798721021362 -0.0255527183902758 0.24825736443494145 -0.12787385507689758
8.88 0.1875161356407207 -0.18863796225886226 0.13090509803028313 -0.020002186977607975 0.13090509803028313 -0.020002186977607975 0.24911106721487172 -0.1286656716636015
8.92 0.1697309744911261 -0.19735440522802467 0.11935511929346684 -0.025833718773964592 0.11935511929346684 -0.025833718773964592 0.2256085321868232 -0.13823854292457652
8.96 0.1652789113158468 -0.20759548000185055 0.11546039724549657 -0.03732140724503092 0.11546039724549657 -0.03732140724503092 0.21269289765590582 -0.14922697247582792
9.0 0.16638216336599945 -0.19730504080771383 0.10567091261289445 -0.0366463425676826 0.10567091261289445 -0.0366463425676826 0.20399225227028953 -0.14911152032266417
